
Gurobi 9.5.0 (linux64) logging started Fri Nov 24 17:15:56 2023

Set parameter LogFile to value "/lustre1/scratch/348/vsc34888/JointResearch/05.Models/06.Benchmarking/E.Representative_days_based_on_Line_Benefits_OptModel/RTS24_mod1_ByStages_nc90/openStarNet_RTS24_mod1_ByStages_nc90.log"
Set parameter Method to value 2
Set parameter MIPFocus to value 1
Set parameter Presolve to value 2
Set parameter RINS to value 100
Set parameter MIPGap to value 0.01
Set parameter Threads to value 36
Set parameter TimeLimit to value 259200
Set parameter IterationLimit to value 760000000
Gurobi Optimizer version 9.5.0 build v9.5.0rc5 (linux64)
Thread count: 36 physical cores, 36 logical processors, using up to 36 threads
Optimize a model with 32308 rows, 21811 columns and 88033 nonzeros
Model fingerprint: 0xa606b6bd
Variable types: 21790 continuous, 21 integer (21 binary)
Coefficient statistics:
  Matrix range     [1e-03, 1e+03]
  Objective range  [1e+00, 1e+00]
  Bounds range     [6e-05, 3e+00]
  RHS range        [6e-05, 3e+00]
Presolve removed 19231 rows and 11033 columns
Presolve time: 0.11s
Presolved: 13077 rows, 10778 columns, 47218 nonzeros
Variable types: 10757 continuous, 21 integer (21 binary)
Found heuristic solution: objective 110.5500702
Root relaxation presolve removed 2 rows and 2 columns
Root relaxation presolved: 13075 rows, 10776 columns, 47214 nonzeros

Root barrier log...

Ordering time: 0.00s

Barrier statistics:
 Dense cols : 21
 AA' NZ     : 8.767e+04
 Factor NZ  : 2.511e+05 (roughly 12 MB of memory)
 Factor Ops : 5.147e+06 (less than 1 second per iteration)
 Threads    : 36

                  Objective                Residual
Iter       Primal          Dual         Primal    Dual     Compl     Time
   0   6.36377601e+05 -1.04468859e+08  5.15e+00 1.32e+02  9.47e+03     0s
   1   9.33663586e+04 -2.65244621e+07  6.35e-01 5.33e-09  1.28e+03     0s
   2   3.71075055e+04 -3.79602034e+06  1.61e-01 1.10e-09  1.61e+02     0s
   3   1.89366442e+04 -4.58447532e+05  6.72e-03 6.70e-11  1.60e+01     0s
   4   8.63106853e+03 -7.22901205e+04  1.18e-12 1.02e-11  2.65e+00     0s
   5   2.34870879e+03 -1.71921207e+04  4.02e-13 2.55e-12  6.41e-01     0s
   6   9.23012422e+02 -4.02419479e+03  3.50e-13 9.09e-13  1.62e-01     0s
   7   4.73834740e+02 -1.50677099e+03  1.85e-13 9.09e-13  6.49e-02     0s
   8   2.53537367e+02 -3.93592055e+02  2.07e-13 1.82e-12  2.12e-02     0s
   9   1.79249882e+02 -1.65662845e+02  1.14e-13 9.09e-13  1.13e-02     0s
  10   1.31364167e+02 -6.87878424e+01  1.36e-13 1.82e-12  6.56e-03     0s
  11   9.17691676e+01  2.52324013e+01  4.28e-13 1.82e-12  2.18e-03     0s
  12   7.72970077e+01  4.76626844e+01  4.50e-13 1.82e-12  9.72e-04     0s
  13   7.07361661e+01  5.40660769e+01  1.17e-12 9.09e-13  5.47e-04     0s
  14   6.75337247e+01  5.62152807e+01  3.70e-12 1.82e-12  3.71e-04     0s
  15   6.58460826e+01  5.75199823e+01  3.61e-12 1.82e-12  2.73e-04     0s
  16   6.49421048e+01  5.99205292e+01  4.21e-12 9.09e-13  1.65e-04     0s
  17   6.42701092e+01  6.08592366e+01  5.48e-12 4.55e-13  1.12e-04     0s
  18   6.33394224e+01  6.16011357e+01  4.17e-12 9.09e-13  5.70e-05     0s
  19   6.27870634e+01  6.20322381e+01  7.91e-12 1.82e-12  2.48e-05     0s
  20   6.27367653e+01  6.20572779e+01  6.55e-12 9.09e-13  2.23e-05     0s
  21   6.26436750e+01  6.21770604e+01  5.61e-12 9.09e-13  1.53e-05     0s
  22   6.26002532e+01  6.22947578e+01  2.82e-11 9.09e-13  1.00e-05     0s
  23   6.25641243e+01  6.23983023e+01  1.63e-11 9.09e-13  5.44e-06     0s
  24   6.25427291e+01  6.24401868e+01  2.52e-11 9.09e-13  3.36e-06     0s
  25   6.25333845e+01  6.24619853e+01  2.11e-11 9.09e-13  2.34e-06     0s
  26   6.25307486e+01  6.24870199e+01  2.10e-11 9.09e-13  1.43e-06     0s
  27   6.25129081e+01  6.24890540e+01  8.75e-11 9.09e-13  7.82e-07     0s
  28   6.25113816e+01  6.24973755e+01  6.98e-11 1.02e-12  4.59e-07     0s
  29   6.25105982e+01  6.25040815e+01  6.34e-11 1.82e-12  2.14e-07     0s
  30   6.25068191e+01  6.25044961e+01  1.08e-10 9.09e-13  7.62e-08     0s
  31   6.25065781e+01  6.25053659e+01  7.04e-11 9.09e-13  3.97e-08     0s
  32   6.25065463e+01  6.25061367e+01  9.26e-11 9.09e-13  1.34e-08     0s
  33   6.25063945e+01  6.25062565e+01  1.13e-10 9.09e-13  4.53e-09     0s
  34   6.25063469e+01  6.25063294e+01  2.48e-10 1.82e-12  5.74e-10     1s
  35   6.25063443e+01  6.25063407e+01  3.64e-10 4.34e-12  1.18e-10     1s
  36   6.25063442e+01  6.25063441e+01  5.72e-10 9.09e-13  3.67e-12     1s

Barrier solved model in 36 iterations and 0.51 seconds (0.45 work units)
Optimal objective 6.25063442e+01


Root relaxation: objective 6.250634e+01, 2037 iterations, 0.35 seconds (0.28 work units)

    Nodes    |    Current Node    |     Objective Bounds      |     Work
 Expl Unexpl |  Obj  Depth IntInf | Incumbent    BestBd   Gap | It/Node Time

     0     0   62.50634    0   16  110.55007   62.50634  43.5%     -    0s
H    0     0                     101.4092038   62.92748  37.9%     -    1s
     0     0   62.99649    0   16  101.40920   62.99649  37.9%     -    1s
     0     0   62.99649    0   15  101.40920   62.99649  37.9%     -    1s
H    0     0                      99.4439265   63.13194  36.5%     -    1s
     0     0   63.13194    0   13   99.44393   63.13194  36.5%     -    1s
     0     0   63.14235    0   13   99.44393   63.14235  36.5%     -    2s
     0     0   63.24402    0   18   99.44393   63.24402  36.4%     -    2s
H    0     0                      98.9938411   63.26304  36.1%     -    2s
     0     0   63.26304    0   13   98.99384   63.26304  36.1%     -    2s
     0     0   63.30071    0   11   98.99384   63.30071  36.1%     -    2s
     0     0   63.30130    0   11   98.99384   63.30130  36.1%     -    2s
H    0     0                      89.3668126   63.30130  29.2%     -    3s
     0     0   63.30219    0   10   89.36681   63.30219  29.2%     -    3s
H    0     0                      81.7336182   63.30219  22.6%     -    6s
     0     2   63.30219    0   10   81.73362   63.30219  22.6%     -    7s
    99   122   69.10657    7   14   81.73362   66.39942  18.8%   707   11s
H  103   122                      81.6243893   66.39942  18.7%   695   11s
   135   145   71.20703    8   13   81.62439   66.39942  18.7%   666   16s
   583   257     cutoff    9        81.62439   66.62674  18.4%   422   20s
  1136   293   76.00170    8   12   81.62439   70.05540  14.2%   376   25s
  1194   295     cutoff    9        81.62439   70.05540  14.2%   376   35s

Cutting planes:
  Gomory: 3
  Implied bound: 72
  MIR: 430
  Relax-and-lift: 47

Explored 3584 nodes (951264 simplex iterations) in 38.31 seconds (53.39 work units)
Thread count was 36 (of 36 available processors)

Solution count 7: 81.6244 81.7336 89.3668 ... 110.55

Optimal solution found (tolerance 1.00e-02)
Best objective 8.162438932428e+01, best bound 8.162438932428e+01, gap 0.0000%

Gurobi 9.5.0 (linux64) logging started Fri Nov 24 17:16:39 2023

Set parameter LogFile to value "/lustre1/scratch/348/vsc34888/JointResearch/05.Models/06.Benchmarking/E.Representative_days_based_on_Line_Benefits_OptModel/RTS24_mod1_ByStages_nc90/openStarNet_RTS24_mod1_ByStages_nc90.log"
Set parameter Method to value 2
Set parameter MIPFocus to value 1
Set parameter Presolve to value 2
Set parameter RINS to value 100
Set parameter MIPGap to value 0.01
Set parameter Threads to value 36
Set parameter TimeLimit to value 259200
Set parameter IterationLimit to value 760000000
No parameters matching 'relax_integrality' found
Gurobi Optimizer version 9.5.0 build v9.5.0rc5 (linux64)
Thread count: 36 physical cores, 36 logical processors, using up to 36 threads
Optimize a model with 32308 rows, 21790 columns and 80368 nonzeros
Model fingerprint: 0xab47b652
Coefficient statistics:
  Matrix range     [1e-03, 1e+03]
  Objective range  [1e+00, 1e+00]
  Bounds range     [6e-05, 3e+00]
  RHS range        [6e-05, 2e+01]
Presolve removed 27008 rows and 12413 columns
Presolve time: 0.04s
Presolved: 5300 rows, 9586 columns, 23435 nonzeros

Ordering time: 0.00s

Barrier statistics:
 AA' NZ     : 1.248e+04
 Factor NZ  : 4.648e+04 (roughly 5 MB of memory)
 Factor Ops : 6.113e+05 (less than 1 second per iteration)
 Threads    : 1

                  Objective                Residual
Iter       Primal          Dual         Primal    Dual     Compl     Time
   0   2.66104527e+06 -3.35398394e+07  1.37e+01 7.15e+02  2.71e+04     0s
   1   1.78563195e+05 -2.35645201e+07  8.84e-01 1.37e-11  2.85e+03     0s
   2   6.37781018e+04 -8.66884808e+06  2.74e-01 2.24e-11  7.78e+02     0s
   3   2.63213817e+04 -2.47497699e+06  3.41e-02 1.55e-11  1.67e+02     0s
   4   1.74062568e+04 -3.66226815e+05  2.73e-03 1.47e-11  2.38e+01     0s
   5   9.78663063e+03 -9.10106246e+04  3.33e-04 6.31e-12  6.20e+00     0s
   6   2.80559852e+03 -2.35231567e+04  2.37e-05 4.28e-12  1.62e+00     0s
   7   7.10431090e+02 -3.53197438e+03  1.21e-06 6.10e-12  2.61e-01     0s
   8   3.18765782e+02 -6.89045122e+02  3.14e-09 3.64e-12  6.19e-02     0s
   9   1.89062018e+02 -1.92879774e+02  1.20e-09 1.82e-12  2.35e-02     0s
  10   1.34833327e+02 -3.05037395e+01  5.13e-10 1.82e-12  1.02e-02     0s
  11   1.04644469e+02  3.36099988e+01  2.01e-10 1.82e-12  4.36e-03     0s
  12   9.15105450e+01  6.21863378e+01  7.92e-11 1.82e-12  1.80e-03     0s
  13   8.41540435e+01  7.56403106e+01  1.79e-11 3.64e-12  5.23e-04     0s
  14   8.18749582e+01  8.06159280e+01  9.95e-12 1.82e-12  7.74e-05     0s
  15   8.16660307e+01  8.13921204e+01  2.21e-11 1.82e-12  1.68e-05     0s
  16   8.16318537e+01  8.15711539e+01  5.84e-12 1.82e-12  3.73e-06     0s
  17   8.16269265e+01  8.16157067e+01  4.48e-12 1.82e-12  6.89e-07     0s
  18   8.16245504e+01  8.16234647e+01  4.96e-12 1.82e-12  6.67e-08     0s
  19   8.16243925e+01  8.16243832e+01  4.63e-12 1.82e-12  5.73e-10     0s
  20   8.16243893e+01  8.16243893e+01  3.06e-12 3.64e-12  5.73e-13     0s
  21   8.16243893e+01  8.16243893e+01  1.84e-12 1.82e-12  5.73e-16     0s

Barrier solved model in 21 iterations and 0.11 seconds (0.11 work units)
Optimal objective 8.16243893e+01

Crossover log...

    1140 DPushes remaining with DInf 0.0000000e+00                 0s

     303 PPushes remaining with PInf 0.0000000e+00                 0s
       0 PPushes remaining with PInf 0.0000000e+00                 0s

  Push phase complete: Pinf 0.0000000e+00, Dinf 5.6193049e-13      0s

Iteration    Objective       Primal Inf.    Dual Inf.      Time
     306    8.1624389e+01   0.000000e+00   0.000000e+00      0s

Use crossover to convert LP symmetric solution to basic solution...
Crossover log...

       0 DPushes remaining with DInf 0.0000000e+00                 0s

     217 PPushes remaining with PInf 0.0000000e+00                 0s
       0 PPushes remaining with PInf 0.0000000e+00                 0s

  Push phase complete: Pinf 0.0000000e+00, Dinf 8.2102361e-13      0s

Iteration    Objective       Primal Inf.    Dual Inf.      Time
     536    8.1624389e+01   0.000000e+00   0.000000e+00      0s

Solved in 536 iterations and 0.15 seconds (0.13 work units)
Optimal objective  8.162438932e+01

Gurobi 9.5.0 (linux64) logging started Fri Dec  8 15:23:12 2023

Set parameter LogFile to value "/lustre1/scratch/348/vsc34888/JointResearch/05.Models/06.Benchmarking/E.Representative_days_based_on_Line_Benefits_OptModel/RTS24_mod1_ByStages_nc90/openStarNet_RTS24_mod1_ByStages_nc90.log"
Set parameter Method to value 2
Set parameter MIPFocus to value 1
Set parameter Presolve to value 2
Set parameter RINS to value 100
Set parameter MIPGap to value 0.01
Set parameter Threads to value 36
Set parameter TimeLimit to value 259200
Set parameter IterationLimit to value 760000000
Gurobi Optimizer version 9.5.0 build v9.5.0rc5 (linux64)
Thread count: 36 physical cores, 36 logical processors, using up to 36 threads
Optimize a model with 32308 rows, 21838 columns and 88116 nonzeros
Model fingerprint: 0xe5a19231
Variable types: 21817 continuous, 21 integer (21 binary)
Coefficient statistics:
  Matrix range     [3e-03, 5e+02]
  Objective range  [1e+00, 1e+00]
  Bounds range     [6e-05, 3e+00]
  RHS range        [6e-05, 3e+00]
Presolve removed 19247 rows and 11081 columns
Presolve time: 0.12s
Presolved: 13061 rows, 10757 columns, 47183 nonzeros
Variable types: 10736 continuous, 21 integer (21 binary)
Found heuristic solution: objective 90.0690801
Root relaxation presolve removed 6 rows and 6 columns
Root relaxation presolved: 13055 rows, 10751 columns, 47171 nonzeros

Root barrier log...

Ordering time: 0.00s

Barrier statistics:
 Dense cols : 21
 AA' NZ     : 8.763e+04
 Factor NZ  : 2.507e+05 (roughly 12 MB of memory)
 Factor Ops : 5.137e+06 (less than 1 second per iteration)
 Threads    : 36

                  Objective                Residual
Iter       Primal          Dual         Primal    Dual     Compl     Time
   0   2.11885057e+06 -4.83007055e+07  1.71e+01 2.02e+02  1.05e+04     0s
   1   6.68484446e+05 -2.33903240e+07  5.30e+00 2.92e+00  2.91e+03     0s
   2   6.34553832e+04 -1.78533057e+07  4.27e-01 1.48e+00  7.39e+02     0s
   3   2.43418892e+04 -1.87511198e+06  7.22e-02 4.91e-10  6.96e+01     0s
   4   1.18176549e+04 -2.44263222e+05  2.44e-03 4.87e-11  8.46e+00     0s
   5   4.47618611e+03 -3.52434548e+04  3.08e-04 6.45e-12  1.31e+00     0s
   6   9.11229118e+02 -6.46929934e+03  3.15e-05 1.23e-12  2.42e-01     0s
   7   3.65697910e+02 -2.00788131e+03  4.34e-06 9.09e-13  7.80e-02     0s
   8   1.84643368e+02 -7.68809263e+02  1.05e-06 9.09e-13  3.13e-02     0s
   9   1.15178034e+02 -2.64044640e+02  4.13e-07 9.09e-13  1.25e-02     0s
  10   7.78373265e+01 -8.60361795e+01  1.67e-07 9.09e-13  5.38e-03     0s
  11   5.96339098e+01  2.54034759e+00  7.90e-08 4.55e-13  1.88e-03     0s
  12   5.27138225e+01  2.34733378e+01  4.96e-08 9.09e-13  9.60e-04     0s
  13   4.91588717e+01  3.05166428e+01  3.48e-08 4.55e-13  6.12e-04     0s
  14   4.63506568e+01  3.31156832e+01  2.27e-08 4.55e-13  4.35e-04     0s
  15   4.48395392e+01  3.56351045e+01  1.58e-08 9.09e-13  3.02e-04     0s
  16   4.40779165e+01  3.57526973e+01  1.26e-08 9.09e-13  2.73e-04     0s
  17   4.33450005e+01  3.80802655e+01  9.50e-09 9.09e-13  1.73e-04     0s
  18   4.24211565e+01  3.94225863e+01  5.40e-09 9.09e-13  9.85e-05     0s
  19   4.23899840e+01  3.95278822e+01  5.25e-09 9.09e-13  9.40e-05     0s
  20   4.20581454e+01  4.01535067e+01  3.73e-09 4.55e-13  6.25e-05     0s
  21   4.15852684e+01  4.05807879e+01  1.51e-09 4.55e-13  3.30e-05     0s
  22   4.14744508e+01  4.08668276e+01  9.87e-10 9.09e-13  2.00e-05     0s
  23   4.13739886e+01  4.10615797e+01  5.35e-10 4.55e-13  1.03e-05     0s
  24   4.13206345e+01  4.11724491e+01  2.89e-10 9.09e-13  4.87e-06     0s
  25   4.12764170e+01  4.12172826e+01  3.43e-10 9.09e-13  1.94e-06     0s
  26   4.12661627e+01  4.12347237e+01  1.89e-10 4.55e-13  1.03e-06     0s
  27   4.12638568e+01  4.12393541e+01  1.44e-10 9.09e-13  8.05e-07     0s
  28   4.12601926e+01  4.12475704e+01  3.38e-10 4.55e-13  4.15e-07     1s
  29   4.12589143e+01  4.12540366e+01  1.51e-10 9.09e-13  1.60e-07     1s
  30   4.12574125e+01  4.12567303e+01  9.71e-11 4.55e-13  2.24e-08     1s
  31   4.12571531e+01  4.12570668e+01  2.82e-09 4.55e-13  2.83e-09     1s
  32   4.12571213e+01  4.12571194e+01  4.16e-10 1.20e-12  6.22e-11     1s
  33   4.12571210e+01  4.12571210e+01  7.89e-11 9.09e-13  2.84e-13     1s

Barrier solved model in 33 iterations and 0.53 seconds (0.44 work units)
Optimal objective 4.12571210e+01


Root relaxation: objective 4.125712e+01, 2029 iterations, 0.38 seconds (0.27 work units)

    Nodes    |    Current Node    |     Objective Bounds      |     Work
 Expl Unexpl |  Obj  Depth IntInf | Incumbent    BestBd   Gap | It/Node Time

     0     0   41.25712    0   19   90.06908   41.25712  54.2%     -    0s
     0     0   42.15720    0   14   90.06908   42.15720  53.2%     -    1s
H    0     0                      86.6088515   42.15720  51.3%     -    1s
H    0     0                      79.3212355   42.17037  46.8%     -    1s
     0     0   42.17037    0   13   79.32124   42.17037  46.8%     -    1s
H    0     0                      76.0117991   42.17037  44.5%     -    1s
     0     0   42.62692    0   16   76.01180   42.62692  43.9%     -    1s
H    0     0                      68.0562875   42.62692  37.4%     -    2s
     0     0   42.64387    0   17   68.05629   42.64387  37.3%     -    2s
     0     0   42.64822    0   15   68.05629   42.64822  37.3%     -    2s
     0     0   42.64855    0   14   68.05629   42.64855  37.3%     -    2s
H    0     0                      63.7283866   42.93945  32.6%     -    2s
     0     0   42.93945    0   15   63.72839   42.93945  32.6%     -    2s
     0     0   42.94930    0   14   63.72839   42.94930  32.6%     -    2s
     0     0   43.27444    0   11   63.72839   43.27444  32.1%     -    3s
     0     0   43.27444    0   12   63.72839   43.27444  32.1%     -    3s
     0     0   43.27444    0   12   63.72839   43.27444  32.1%     -    3s
     0     0   43.27444    0   11   63.72839   43.27444  32.1%     -    3s
     0     0   43.27444    0   12   63.72839   43.27444  32.1%     -    3s
     0     0   43.27444    0   12   63.72839   43.27444  32.1%     -    3s
H    0     0                      61.1579225   43.27444  29.2%     -    3s
     0     0   43.27444    0   11   61.15792   43.27444  29.2%     -    4s
H    0     0                      61.0414538   43.27444  29.1%     -    9s
     0     2   43.27444    0   11   61.04145   43.27444  29.1%     -    9s
     7    16   44.22342    3   13   61.04145   44.08443  27.8%   598   10s
H  107   121                      60.1106105   46.17234  23.2%   499   14s
   135   144   51.74340    8   12   60.11061   46.36100  22.9%   469   19s
   207   170   54.81743    9   12   60.11061   46.57548  22.5%   398   20s
  1030   309     cutoff   10        60.11061   49.06951  18.4%   277   25s
  1693   304   56.16025   12    8   60.11061   49.50777  17.6%   247   41s
  2296   180   58.67109   11   10   60.11061   51.30514  14.6%   230   59s
  2515   142     cutoff   11        60.11061   54.15624  9.91%   224   61s

Cutting planes:
  Implied bound: 90
  MIR: 452
  Relax-and-lift: 45

Explored 2990 nodes (635546 simplex iterations) in 62.47 seconds (80.58 work units)
Thread count was 36 (of 36 available processors)

Solution count 9: 60.1106 61.0415 61.1579 ... 90.0691

Optimal solution found (tolerance 1.00e-02)
Best objective 6.011061046456e+01, best bound 5.956954690122e+01, gap 0.9001%

Gurobi 9.5.0 (linux64) logging started Fri Dec  8 15:24:19 2023

Set parameter LogFile to value "/lustre1/scratch/348/vsc34888/JointResearch/05.Models/06.Benchmarking/E.Representative_days_based_on_Line_Benefits_OptModel/RTS24_mod1_ByStages_nc90/openStarNet_RTS24_mod1_ByStages_nc90.log"
Set parameter Method to value 2
Set parameter MIPFocus to value 1
Set parameter Presolve to value 2
Set parameter RINS to value 100
Set parameter MIPGap to value 0.01
Set parameter Threads to value 36
Set parameter TimeLimit to value 259200
Set parameter IterationLimit to value 760000000
No parameters matching 'relax_integrality' found
Gurobi Optimizer version 9.5.0 build v9.5.0rc5 (linux64)
Thread count: 36 physical cores, 36 logical processors, using up to 36 threads
Optimize a model with 32308 rows, 21817 columns and 80451 nonzeros
Model fingerprint: 0xfaaef475
Coefficient statistics:
  Matrix range     [3e-03, 5e+02]
  Objective range  [1e+00, 1e+00]
  Bounds range     [6e-05, 3e+00]
  RHS range        [6e-05, 2e+01]
Presolve removed 26935 rows and 12271 columns
Presolve time: 0.04s
Presolved: 5373 rows, 9724 columns, 23866 nonzeros

Ordering time: 0.00s

Barrier statistics:
 AA' NZ     : 1.338e+04
 Factor NZ  : 4.611e+04 (roughly 5 MB of memory)
 Factor Ops : 5.952e+05 (less than 1 second per iteration)
 Threads    : 1

                  Objective                Residual
Iter       Primal          Dual         Primal    Dual     Compl     Time
   0   1.56569684e+06 -5.55567326e+07  8.95e+00 6.25e+02  3.39e+04     0s
   1   1.14034341e+05 -3.88101386e+07  5.85e-01 2.55e-11  4.01e+03     0s
   2   4.63102237e+04 -1.35664946e+07  1.66e-01 2.97e-11  1.08e+03     0s
   3   2.85545242e+04 -3.34217352e+06  3.96e-02 2.32e-11  2.32e+02     0s
   4   2.04005452e+04 -5.84191058e+05  1.53e-03 2.09e-11  3.70e+01     0s
   5   1.19099283e+04 -1.33211840e+05  1.15e-07 3.66e-11  8.83e+00     0s
   6   4.23404317e+03 -1.71538260e+04  1.21e-08 9.29e-12  1.30e+00     0s
   7   7.07229941e+02 -2.07201645e+03  5.81e-10 3.83e-12  1.69e-01     0s
   8   2.52824739e+02 -2.92846711e+02  6.34e-13 1.82e-12  3.32e-02     0s
   9   1.24138322e+02 -9.39095777e+01  4.70e-13 9.09e-13  1.33e-02     0s
  10   9.50219022e+01 -2.24596742e+01  4.77e-13 3.64e-12  7.15e-03     0s
  11   7.71091333e+01  2.42266482e+01  1.59e-12 9.09e-13  3.22e-03     0s
  12   6.68497732e+01  4.67780927e+01  1.65e-12 3.64e-12  1.22e-03     0s
  13   6.18557953e+01  5.71033645e+01  9.74e-13 1.82e-12  2.89e-04     0s
  14   6.03770402e+01  5.97212648e+01  1.45e-12 9.09e-13  3.99e-05     0s
  15   6.01399181e+01  6.00818998e+01  6.95e-13 3.64e-12  3.53e-06     0s
  16   6.01112013e+01  6.01064211e+01  1.05e-12 7.28e-12  2.91e-07     0s
  17   6.01106226e+01  6.01105838e+01  1.47e-12 1.82e-12  2.36e-09     0s
  18   6.01106105e+01  6.01106105e+01  7.39e-13 3.64e-12  1.41e-14     0s

Barrier solved model in 18 iterations and 0.12 seconds (0.10 work units)
Optimal objective 6.01106105e+01

Crossover log...

    1194 DPushes remaining with DInf 0.0000000e+00                 0s
       0 DPushes remaining with DInf 0.0000000e+00                 0s

     313 PPushes remaining with PInf 0.0000000e+00                 0s
       0 PPushes remaining with PInf 0.0000000e+00                 0s

  Push phase complete: Pinf 0.0000000e+00, Dinf 4.4407646e-13      0s

Iteration    Objective       Primal Inf.    Dual Inf.      Time
     326    6.0110610e+01   0.000000e+00   0.000000e+00      0s

Use crossover to convert LP symmetric solution to basic solution...
Crossover log...

       0 DPushes remaining with DInf 0.0000000e+00                 0s

     274 PPushes remaining with PInf 0.0000000e+00                 0s
       0 PPushes remaining with PInf 0.0000000e+00                 0s

  Push phase complete: Pinf 0.0000000e+00, Dinf 4.9813227e-13      0s

Iteration    Objective       Primal Inf.    Dual Inf.      Time
     637    6.0110610e+01   0.000000e+00   0.000000e+00      0s

Solved in 637 iterations and 0.17 seconds (0.13 work units)
Optimal objective  6.011061046e+01

Gurobi 9.5.0 (linux64) logging started Fri Dec  8 20:35:02 2023

Set parameter LogFile to value "/lustre1/scratch/348/vsc34888/JointResearch/05.Models/06.Benchmarking/E.Representative_days_based_on_Line_Benefits_OptModel/RTS24_mod1_ByStages_nc90/openStarNet_RTS24_mod1_ByStages_nc90.log"
Set parameter Method to value 2
Set parameter MIPFocus to value 1
Set parameter Presolve to value 2
Set parameter RINS to value 100
Set parameter MIPGap to value 0.01
Set parameter Threads to value 36
Set parameter TimeLimit to value 259200
Set parameter IterationLimit to value 760000000
Gurobi Optimizer version 9.5.0 build v9.5.0rc5 (linux64)
Thread count: 36 physical cores, 36 logical processors, using up to 36 threads
Optimize a model with 32308 rows, 21849 columns and 88151 nonzeros
Model fingerprint: 0xcf3f864d
Variable types: 21828 continuous, 21 integer (21 binary)
Coefficient statistics:
  Matrix range     [1e-03, 1e+03]
  Objective range  [1e+00, 1e+00]
  Bounds range     [6e-05, 2e+00]
  RHS range        [6e-05, 2e+00]
Presolve removed 19233 rows and 11073 columns
Presolve time: 0.11s
Presolved: 13075 rows, 10776 columns, 47213 nonzeros
Variable types: 10755 continuous, 21 integer (21 binary)
Found heuristic solution: objective 96.1858755
Root relaxation presolve removed 2 rows and 2 columns
Root relaxation presolved: 13073 rows, 10774 columns, 47209 nonzeros

Root barrier log...

Ordering time: 0.00s

Barrier statistics:
 Dense cols : 21
 AA' NZ     : 8.766e+04
 Factor NZ  : 2.511e+05 (roughly 12 MB of memory)
 Factor Ops : 5.147e+06 (less than 1 second per iteration)
 Threads    : 36

                  Objective                Residual
Iter       Primal          Dual         Primal    Dual     Compl     Time
   0   6.38860932e+05 -1.04409286e+08  5.11e+00 1.61e+02  9.44e+03     0s
   1   9.22971155e+04 -2.63943282e+07  6.25e-01 3.32e-09  1.27e+03     0s
   2   3.69026462e+04 -3.81621241e+06  1.51e-01 2.89e-10  1.60e+02     0s
   3   1.82260894e+04 -4.04347862e+05  5.14e-03 2.65e-11  1.41e+01     0s
   4   7.27705636e+03 -7.01152228e+04  2.43e-05 5.16e-11  2.54e+00     0s
   5   2.21539811e+03 -1.35950564e+04  3.03e-06 6.61e-12  5.18e-01     0s
   6   9.95510912e+02 -3.48891774e+03  9.29e-07 1.49e-12  1.47e-01     0s
   7   4.07371721e+02 -1.36815755e+03  1.88e-07 9.09e-13  5.82e-02     0s
   8   2.71067379e+02 -3.17547421e+02  9.70e-08 9.09e-13  1.93e-02     0s
   9   1.98090822e+02 -9.92584919e+01  5.93e-08 9.09e-13  9.75e-03     0s
  10   1.14460494e+02 -8.86930109e+00  2.36e-08 1.82e-12  4.04e-03     0s
  11   8.65967757e+01  2.17047789e+01  1.24e-08 3.64e-12  2.13e-03     0s
  12   7.51618809e+01  3.56278312e+01  8.07e-09 1.82e-12  1.30e-03     0s
  13   7.01530213e+01  4.17304906e+01  6.06e-09 1.82e-12  9.32e-04     0s
  14   6.37717368e+01  5.03388007e+01  3.53e-09 9.09e-13  4.40e-04     0s
  15   6.10568652e+01  5.22802024e+01  2.46e-09 9.09e-13  2.88e-04     0s
  16   5.94708413e+01  5.28650389e+01  1.83e-09 1.82e-12  2.17e-04     0s
  17   5.76418553e+01  5.34747097e+01  1.09e-09 9.09e-13  1.37e-04     0s
  18   5.62958926e+01  5.43177613e+01  5.53e-10 4.55e-13  6.49e-05     0s
  19   5.57065135e+01  5.45133243e+01  3.28e-10 4.55e-13  3.91e-05     0s
  20   5.53616222e+01  5.46521977e+01  1.94e-10 1.82e-12  2.33e-05     0s
  21   5.51289227e+01  5.47111137e+01  1.01e-10 1.82e-12  1.37e-05     0s
  22   5.50720941e+01  5.47185338e+01  7.99e-11 1.82e-12  1.16e-05     0s
  23   5.49142962e+01  5.47290097e+01  2.65e-11 1.82e-12  6.08e-06     0s
  24   5.48908766e+01  5.48138780e+01  2.34e-11 1.82e-12  2.52e-06     0s
  25   5.48656311e+01  5.48598118e+01  4.36e-11 9.09e-13  1.91e-07     0s
  26   5.48648301e+01  5.48634341e+01  1.56e-10 1.96e-12  4.58e-08     0s
  27   5.48641633e+01  5.48639876e+01  3.76e-10 1.69e-12  5.76e-09     0s
  28   5.48641356e+01  5.48641155e+01  1.34e-09 9.09e-13  6.60e-10     0s
  29   5.48641266e+01  5.48641259e+01  2.61e-10 1.82e-12  2.25e-11     0s
  30   5.48641263e+01  5.48641263e+01  1.00e-09 9.09e-13  1.38e-13     0s

Barrier solved model in 30 iterations and 0.49 seconds (0.42 work units)
Optimal objective 5.48641263e+01


Root relaxation: objective 5.486413e+01, 2047 iterations, 0.33 seconds (0.25 work units)

    Nodes    |    Current Node    |     Objective Bounds      |     Work
 Expl Unexpl |  Obj  Depth IntInf | Incumbent    BestBd   Gap | It/Node Time

     0     0   54.86413    0   16   96.18588   54.86413  43.0%     -    0s
     0     0   55.67637    0   13   96.18588   55.67637  42.1%     -    1s
H    0     0                      92.8283123   55.67637  40.0%     -    1s
H    0     0                      88.0261434   55.67637  36.8%     -    1s
     0     0   55.67637    0   13   88.02614   55.67637  36.8%     -    1s
H    0     0                      86.9721532   55.80661  35.8%     -    1s
     0     0   55.80661    0   14   86.97215   55.80661  35.8%     -    1s
H    0     0                      82.8213188   55.80661  32.6%     -    1s
     0     0   55.84720    0   14   82.82132   55.84720  32.6%     -    2s
     0     0   55.86689    0   12   82.82132   55.86689  32.5%     -    2s
     0     0   55.87450    0   12   82.82132   55.87450  32.5%     -    2s
H    0     0                      79.9593862   55.87497  30.1%     -    2s
     0     0   55.87497    0   12   79.95939   55.87497  30.1%     -    2s
     0     0   55.87565    0   12   79.95939   55.87565  30.1%     -    2s
H    0     0                      77.9701689   55.87777  28.3%     -    2s
     0     0   55.87777    0   13   77.97017   55.87777  28.3%     -    2s
     0     0   55.88085    0   12   77.97017   55.88085  28.3%     -    3s
     0     0   55.88085    0   12   77.97017   55.88085  28.3%     -    3s
     0     0   56.50278    0   12   77.97017   56.50278  27.5%     -    3s
H    0     0                      72.7342976   56.50278  22.3%     -   14s
     0     2   56.50278    0   12   72.73430   56.50278  22.3%     -   15s
    99   120   62.33444    7   13   72.73430   58.83238  19.1%   539   20s
   300   203     cutoff   10        72.73430   59.58873  18.1%   403   44s
   348   217   61.96884    7   13   72.73430   59.58873  18.1%   385   47s
  1343   187   70.12073   14    7   72.73430   60.45563  16.9%   304   50s
  1999    90     cutoff   11        72.73430   64.22937  11.7%   270   70s

Cutting planes:
  Gomory: 3
  Implied bound: 106
  MIR: 454
  Relax-and-lift: 38

Explored 2476 nodes (627970 simplex iterations) in 70.86 seconds (92.95 work units)
Thread count was 36 (of 36 available processors)

Solution count 8: 72.7343 77.9702 79.9594 ... 96.1859

Optimal solution found (tolerance 1.00e-02)
Best objective 7.273429761010e+01, best bound 7.273429761010e+01, gap 0.0000%

Gurobi 9.5.0 (linux64) logging started Fri Dec  8 20:36:17 2023

Set parameter LogFile to value "/lustre1/scratch/348/vsc34888/JointResearch/05.Models/06.Benchmarking/E.Representative_days_based_on_Line_Benefits_OptModel/RTS24_mod1_ByStages_nc90/openStarNet_RTS24_mod1_ByStages_nc90.log"
Set parameter Method to value 2
Set parameter MIPFocus to value 1
Set parameter Presolve to value 2
Set parameter RINS to value 100
Set parameter MIPGap to value 0.01
Set parameter Threads to value 36
Set parameter TimeLimit to value 259200
Set parameter IterationLimit to value 760000000
No parameters matching 'relax_integrality' found
Gurobi Optimizer version 9.5.0 build v9.5.0rc5 (linux64)
Thread count: 36 physical cores, 36 logical processors, using up to 36 threads
Optimize a model with 32308 rows, 21828 columns and 80486 nonzeros
Model fingerprint: 0x73a75702
Coefficient statistics:
  Matrix range     [1e-03, 1e+03]
  Objective range  [1e+00, 1e+00]
  Bounds range     [6e-05, 2e+00]
  RHS range        [6e-05, 2e+01]
Presolve removed 26976 rows and 12234 columns
Presolve time: 0.04s
Presolved: 5332 rows, 9685 columns, 23205 nonzeros

Ordering time: 0.00s

Barrier statistics:
 AA' NZ     : 1.265e+04
 Factor NZ  : 4.575e+04 (roughly 5 MB of memory)
 Factor Ops : 5.782e+05 (less than 1 second per iteration)
 Threads    : 1

                  Objective                Residual
Iter       Primal          Dual         Primal    Dual     Compl     Time
   0   9.89422961e+05 -2.97717659e+07  5.99e+00 5.60e+02  1.27e+04     0s
   1   8.35150643e+04 -1.81037916e+07  4.34e-01 1.45e-11  1.70e+03     0s
   2   4.30819860e+04 -5.25509092e+06  1.47e-01 1.90e-11  4.14e+02     0s
   3   2.11577282e+04 -5.06427809e+05  3.24e-03 1.14e-11  3.25e+01     0s
   4   1.19026992e+04 -5.81093585e+04  8.17e-05 4.35e-11  4.25e+00     0s
   5   3.28823272e+03 -1.37003919e+04  6.23e-06 9.87e-12  1.03e+00     0s
   6   1.01690699e+03 -2.87735950e+03  1.07e-06 5.46e-12  2.37e-01     0s
   7   3.56403384e+02 -1.65426352e+03  7.08e-08 1.82e-12  1.22e-01     0s
   8   2.22894766e+02 -2.29082310e+02  7.91e-09 1.82e-12  2.75e-02     0s
   9   1.39355752e+02 -5.13031265e+01  2.75e-09 3.64e-12  1.16e-02     0s
  10   1.02126529e+02  2.90059670e+01  1.11e-09 1.82e-12  4.44e-03     0s
  11   8.52076389e+01  5.84491848e+01  4.42e-10 1.82e-12  1.63e-03     0s
  12   7.69535447e+01  6.70527597e+01  1.42e-10 1.82e-12  6.01e-04     0s
  13   7.40019323e+01  7.20004119e+01  4.01e-11 3.64e-12  1.22e-04     0s
  14   7.28994204e+01  7.26593287e+01  9.47e-12 3.64e-12  1.46e-05     0s
  15   7.27650469e+01  7.27214255e+01  1.20e-11 1.82e-12  2.65e-06     0s
  16   7.27378254e+01  7.27322507e+01  2.57e-11 1.82e-12  3.39e-07     0s
  17   7.27345710e+01  7.27342253e+01  1.26e-11 1.82e-12  2.10e-08     0s
  18   7.27342976e+01  7.27342976e+01  4.50e-11 3.64e-12  4.19e-12     0s
  19   7.27342976e+01  7.27342976e+01  4.26e-12 1.82e-12  4.19e-15     0s

Barrier solved model in 19 iterations and 0.10 seconds (0.10 work units)
Optimal objective 7.27342976e+01

Crossover log...

    1158 DPushes remaining with DInf 0.0000000e+00                 0s
       0 DPushes remaining with DInf 0.0000000e+00                 0s

     302 PPushes remaining with PInf 0.0000000e+00                 0s
       0 PPushes remaining with PInf 0.0000000e+00                 0s

  Push phase complete: Pinf 0.0000000e+00, Dinf 7.6752310e-13      0s

Iteration    Objective       Primal Inf.    Dual Inf.      Time
     306    7.2734298e+01   0.000000e+00   0.000000e+00      0s

Use crossover to convert LP symmetric solution to basic solution...
Crossover log...

       0 DPushes remaining with DInf 0.0000000e+00                 0s

     238 PPushes remaining with PInf 0.0000000e+00                 0s
       0 PPushes remaining with PInf 0.0000000e+00                 0s

  Push phase complete: Pinf 0.0000000e+00, Dinf 5.7375228e-13      0s

Iteration    Objective       Primal Inf.    Dual Inf.      Time
     549    7.2734298e+01   0.000000e+00   0.000000e+00      0s

Solved in 549 iterations and 0.15 seconds (0.13 work units)
Optimal objective  7.273429761e+01
